webassembly/ejemplos_dzn/folder14_json_29.dzn
TERM = { '.', 's(5)', 's(2)', 's(4)', 'in_1', 'local_0', 'local_1', 'in_2', 'in_4', 'in_3', 's(6)', 's(1)', 's(0)', 's(7)', 's(3)', 'in_0'};
null = '.';
s = 14;
n = 11;
ndeps = 4;
max_registers_sz = 5;
NR = 2;
registers = [|'local_0', 's(1)', |'local_1', 's(5)'|];
dependencies = [|'i32.load_3', 'call[function_index(0)]_8', |'call[function_index(0)]_8', 'i32.store16_9', |'i32.store16_9', 'call[function_index(1)]_11', |'i32.load_6', 'call[function_index(0)]_8'|];
GET_ENUM = { GET1, GET2, GET3, GET4, GET5, GET6, GET7};
SET_ENUM = { SET1, SET2, SET3, SET4, SET5, SET6, SET7};
TEE_ENUM = { TEE1, TEE2, TEE3, TEE4, TEE5, TEE6, TEE7};
N = 6;
OP = { 'call[function_index(0)]_8', 'call[function_index(1)]_11', 'i32.const_0', 'i32.load_3', 'i32.load_6', 'i32.store16_9' };
in_ops = [0, 3, 0, 1, 1, 2 ];
out_ops = [2, 3, 1, 1, 1, 0 ];
in1 = ['.', 'in_2', '.', 's(7)', 'in_1', 's(3)' ];
in2 = ['.', 'in_3', '.', '.', '.', 's(2)' ];
in3 = ['.', 'in_4', '.', '.', '.', '.' ];
out1 = ['s(3)', 's(6)', 's(7)', 's(0)', 's(1)', '.' ];
out2 = ['s(2)', 's(5)', '.', '.', '.', '.' ];
out3 = ['.', 's(4)', '.', '.', '.', '.' ];
comm = [false, false, false, false, false, false ];
gas = [1, 1, 1, 1, 1, 1 ];
sz = [1, 1, 1, 1, 1, 1 ];
stor = [true, true, false, false, false, true ];
lb = [ 1, 1, 1, 1, 1, 1 ];
ub = [ 14, 14, 14, 14, 14, 14 ];
startstack = [ 'in_0', 'in_1', 'in_2', 'in_3', 'in_4', null, null, null, null, null, null ];
endstack = [ 's(5)', 's(4)', null, null, null, null, null, null, null, null, null ];
